Maximize
F 

Subject to
F - 15y15 - 20y12 - 20y33 - 15y150 - 20y75 - 20y7 - 20y162 - 15y141 - 15y68 - 15y175 - 15y62 - 15y111 - 20y19 - 20y25 - 10y149 - 20y205 - 5y30 - 10y55 - 5y177 - 5y80 - 10y2 - 5y48 - 20y64 - 5y133 - 10y209 - 10y1 = 0

x187x12x1 + x187x33x1 + x187x75x1 + x187x7x1 + x187x141x1 + x187x68x1 + x187x111x1 + x187x149x1 + x187x205x1 + x187x55x1 + x187x177x1 + x187x80x1 + x187x64x1 + x187x209x1 + x187x1x1 
<= 1
x23x75x1 + x23x141x1 + x23x149x1 + x23x205x1 + x23x55x1 + x23x177x1 + x23x80x1 + x23x64x1 + x23x209x1 + x23x1x1 
<= 1
x77x209x1 + x77x1x1 
<= 1
x145x209x1 + x145x1x1 
<= 1
x164x209x1 + x164x1x1 
<= 1
x45x1x1 
<= 1
x187x75x2 + x187x141x2 + x187x175x2 + x187x62x2 + x187x25x2 + x187x30x2 + x187x80x2 + x187x48x2 + x187x133x2 
<= 1
x186x133x2 
<= 2
x23x162x3 + x23x62x3 + x23x19x3 + x23x205x3 + x23x2x3 + x23x64x3 + x23x133x3 + x23x209x3 + x23x1x3 
<= 1
x77x133x3 + x77x209x3 + x77x1x3 
<= 1
x129x209x3 + x129x1x3 
<= 1
x145x209x3 + x145x1x3 
<= 1
x84x15x3 + x84x12x3 + x84x33x3 + x84x150x3 + x84x162x3 + x84x68x3 + x84x62x3 + x84x19x3 + x84x205x3 + x84x2x3 + x84x64x3 + x84x133x3 + x84x209x3 + x84x1x3 
<= 2


- x15x7x1 - x15x68x1 - x15x111x1 - x15x149x1 - x15x205x1 - x15x55x1 - x15x177x1 - x15x80x1 - x15x64x1 - x15x209x1 - x15x1x1 
= 0

x84x15x3 
- x15x0x3
- x15x68x3 - x15x19x3 - x15x205x3 - x15x2x3 - x15x64x3 - x15x133x3 - x15x209x3 - x15x1x3 
= 0

x187x12x1 
- x12x0x1
- x12x68x1 - x12x111x1 - x12x149x1 - x12x205x1 - x12x55x1 - x12x177x1 - x12x80x1 - x12x64x1 - x12x209x1 - x12x1x1 
= 0

x84x12x3 
- x12x0x3
- x12x68x3 - x12x62x3 - x12x19x3 - x12x205x3 - x12x2x3 - x12x64x3 - x12x133x3 - x12x209x3 - x12x1x3 
= 0

x187x33x1 
- x33x0x1
- x33x75x1 - x33x141x1 - x33x80x1 - x33x64x1 - x33x209x1 - x33x1x1 
= 0

x84x33x3 
- x33x0x3
- x33x162x3 - x33x62x3 - x33x19x3 - x33x2x3 - x33x64x3 - x33x133x3 - x33x209x3 - x33x1x3 
= 0



x84x150x3 
- x150x0x3
- x150x68x3 - x150x205x3 - x150x2x3 - x150x64x3 - x150x133x3 - x150x209x3 - x150x1x3 
= 0

x187x75x1 + x23x75x1 + x33x75x1 
- x75x0x1
- x75x141x1 - x75x64x1 - x75x209x1 - x75x1x1 
= 0
x187x75x2 
- x75x0x2
- x75x141x2 - x75x62x2 - x75x25x2 - x75x48x2 - x75x133x2 
= 0


x187x7x1 + x15x7x1 
- x7x0x1
- x7x68x1 - x7x111x1 - x7x149x1 - x7x205x1 - x7x55x1 - x7x177x1 - x7x80x1 - x7x64x1 - x7x209x1 - x7x1x1 
= 0





x23x162x3 + x84x162x3 + x33x162x3 
- x162x0x3
- x162x62x3 - x162x19x3 - x162x64x3 - x162x133x3 - x162x209x3 - x162x1x3 
= 0

x187x141x1 + x23x141x1 + x33x141x1 + x75x141x1 
- x141x0x1
- x141x64x1 - x141x209x1 - x141x1x1 
= 0
x187x141x2 + x75x141x2 
- x141x0x2
- x141x62x2 - x141x25x2 - x141x48x2 - x141x133x2 
= 0


x187x68x1 + x15x68x1 + x12x68x1 + x7x68x1 
- x68x0x1
- x68x111x1 - x68x55x1 - x68x177x1 - x68x80x1 - x68x64x1 - x68x209x1 - x68x1x1 
= 0

x84x68x3 + x15x68x3 + x12x68x3 + x150x68x3 
- x68x0x3
- x68x2x3 - x68x64x3 - x68x133x3 - x68x209x3 - x68x1x3 
= 0


x187x175x2 
- x175x0x2
- x175x48x2 - x175x133x2 
= 0



x187x62x2 + x75x62x2 + x141x62x2 
- x62x0x2
- x62x25x2 
= 0
x23x62x3 + x84x62x3 + x12x62x3 + x33x62x3 + x162x62x3 
- x62x0x3
- x62x19x3 - x62x209x3 - x62x1x3 
= 0

x187x111x1 + x15x111x1 + x12x111x1 + x7x111x1 + x68x111x1 
- x111x0x1
- x111x64x1 - x111x209x1 - x111x1x1 
= 0





x23x19x3 + x84x19x3 + x15x19x3 + x12x19x3 + x33x19x3 + x162x19x3 + x62x19x3 
- x19x0x3
- x19x209x3 - x19x1x3 
= 0


x187x25x2 + x75x25x2 + x141x25x2 + x62x25x2 
- x25x0x2

= 0


x187x149x1 + x23x149x1 + x15x149x1 + x12x149x1 + x7x149x1 
- x149x0x1
- x149x205x1 - x149x55x1 - x149x177x1 - x149x80x1 - x149x64x1 - x149x209x1 - x149x1x1 
= 0



x187x205x1 + x23x205x1 + x15x205x1 + x12x205x1 + x7x205x1 + x149x205x1 
- x205x0x1
- x205x55x1 - x205x177x1 - x205x80x1 - x205x64x1 - x205x209x1 - x205x1x1 
= 0

x23x205x3 + x84x205x3 + x15x205x3 + x12x205x3 + x150x205x3 
- x205x0x3
- x205x2x3 - x205x64x3 - x205x133x3 - x205x209x3 - x205x1x3 
= 0


x187x30x2 
- x30x0x2
- x30x80x2 - x30x48x2 - x30x133x2 
= 0


x187x55x1 + x23x55x1 + x15x55x1 + x12x55x1 + x7x55x1 + x68x55x1 + x149x55x1 + x205x55x1 
- x55x0x1
- x55x64x1 - x55x209x1 - x55x1x1 
= 0



x187x177x1 + x23x177x1 + x15x177x1 + x12x177x1 + x7x177x1 + x68x177x1 + x149x177x1 + x205x177x1 
- x177x0x1
- x177x64x1 - x177x209x1 - x177x1x1 
= 0



x187x80x1 + x23x80x1 + x15x80x1 + x12x80x1 + x33x80x1 + x7x80x1 + x68x80x1 + x149x80x1 + x205x80x1 
- x80x0x1
- x80x64x1 - x80x209x1 - x80x1x1 
= 0
x187x80x2 + x30x80x2 
- x80x0x2
- x80x48x2 - x80x133x2 
= 0




x23x2x3 + x84x2x3 + x15x2x3 + x12x2x3 + x33x2x3 + x150x2x3 + x68x2x3 + x205x2x3 
- x2x0x3
- x2x64x3 - x2x133x3 - x2x209x3 - x2x1x3 
= 0


x187x48x2 + x75x48x2 + x141x48x2 + x175x48x2 + x30x48x2 + x80x48x2 
- x48x0x2
- x48x133x2 
= 0


x187x64x1 + x23x64x1 + x15x64x1 + x12x64x1 + x33x64x1 + x75x64x1 + x7x64x1 + x141x64x1 + x68x64x1 + x111x64x1 + x149x64x1 + x205x64x1 + x55x64x1 + x177x64x1 + x80x64x1 
- x64x0x1
- x64x209x1 
= 0

x23x64x3 + x84x64x3 + x15x64x3 + x12x64x3 + x33x64x3 + x150x64x3 + x162x64x3 + x68x64x3 + x205x64x3 + x2x64x3 
- x64x0x3
- x64x133x3 - x64x209x3 
= 0


x187x133x2 + x186x133x2 + x75x133x2 + x141x133x2 + x175x133x2 + x30x133x2 + x80x133x2 + x48x133x2 
- x133x0x2

= 0
x23x133x3 + x77x133x3 + x84x133x3 + x15x133x3 + x12x133x3 + x33x133x3 + x150x133x3 + x162x133x3 + x68x133x3 + x205x133x3 + x2x133x3 + x64x133x3 
- x133x0x3
- x133x209x3 
= 0

x187x209x1 + x23x209x1 + x77x209x1 + x145x209x1 + x164x209x1 + x15x209x1 + x12x209x1 + x33x209x1 + x75x209x1 + x7x209x1 + x141x209x1 + x68x209x1 + x111x209x1 + x149x209x1 + x205x209x1 + x55x209x1 + x177x209x1 + x80x209x1 + x64x209x1 
- x209x0x1

= 0

x23x209x3 + x77x209x3 + x129x209x3 + x145x209x3 + x84x209x3 + x15x209x3 + x12x209x3 + x33x209x3 + x150x209x3 + x162x209x3 + x68x209x3 + x62x209x3 + x19x209x3 + x205x209x3 + x2x209x3 + x64x209x3 + x133x209x3 
- x209x0x3

= 0

x187x1x1 + x23x1x1 + x77x1x1 + x145x1x1 + x164x1x1 + x45x1x1 + x15x1x1 + x12x1x1 + x33x1x1 + x75x1x1 + x7x1x1 + x141x1x1 + x68x1x1 + x111x1x1 + x149x1x1 + x205x1x1 + x55x1x1 + x177x1x1 + x80x1x1 
- x1x0x1

= 0

x23x1x3 + x77x1x3 + x129x1x3 + x145x1x3 + x84x1x3 + x15x1x3 + x12x1x3 + x33x1x3 + x150x1x3 + x162x1x3 + x68x1x3 + x62x1x3 + x19x1x3 + x205x1x3 + x2x1x3 
- x1x0x3

= 0

1y15 = 0
1y15 - x84x15x3 = 0
1y12 - x187x12x1 = 0
1y12 - x84x12x3 = 0
1y33 - x187x33x1 = 0
1y33 - x84x33x3 = 0
2y150 - x84x150x3 = 0
1y75 - x187x75x1 - x23x75x1 - x33x75x1 = 0
1y75 - x187x75x2 = 0
2y7 - x187x7x1 - x15x7x1 = 0
2y162 - x23x162x3 - x84x162x3 - x33x162x3 = 0
1y141 - x187x141x1 - x23x141x1 - x33x141x1 - x75x141x1 = 0
1y141 - x187x141x2 - x75x141x2 = 0
1y68 - x187x68x1 - x15x68x1 - x12x68x1 - x7x68x1 = 0
1y68 - x84x68x3 - x15x68x3 - x12x68x3 - x150x68x3 = 0
2y175 - x187x175x2 = 0
1y62 - x187x62x2 - x75x62x2 - x141x62x2 = 0
1y62 - x23x62x3 - x84x62x3 - x12x62x3 - x33x62x3 - x162x62x3 = 0
2y111 - x187x111x1 - x15x111x1 - x12x111x1 - x7x111x1 - x68x111x1 = 0
2y19 - x23x19x3 - x84x19x3 - x15x19x3 - x12x19x3 - x33x19x3 - x162x19x3 - x62x19x3 = 0
2y25 - x187x25x2 - x75x25x2 - x141x25x2 - x62x25x2 = 0
2y149 - x187x149x1 - x23x149x1 - x15x149x1 - x12x149x1 - x7x149x1 = 0
1y205 - x187x205x1 - x23x205x1 - x15x205x1 - x12x205x1 - x7x205x1 - x149x205x1 = 0
1y205 - x23x205x3 - x84x205x3 - x15x205x3 - x12x205x3 - x150x205x3 = 0
2y30 - x187x30x2 = 0
2y55 - x187x55x1 - x23x55x1 - x15x55x1 - x12x55x1 - x7x55x1 - x68x55x1 - x149x55x1 - x205x55x1 = 0
2y177 - x187x177x1 - x23x177x1 - x15x177x1 - x12x177x1 - x7x177x1 - x68x177x1 - x149x177x1 - x205x177x1 = 0
1y80 - x187x80x1 - x23x80x1 - x15x80x1 - x12x80x1 - x33x80x1 - x7x80x1 - x68x80x1 - x149x80x1 - x205x80x1 = 0
1y80 - x187x80x2 - x30x80x2 = 0
2y2 - x23x2x3 - x84x2x3 - x15x2x3 - x12x2x3 - x33x2x3 - x150x2x3 - x68x2x3 - x205x2x3 = 0
2y48 - x187x48x2 - x75x48x2 - x141x48x2 - x175x48x2 - x30x48x2 - x80x48x2 = 0
1y64 - x187x64x1 - x23x64x1 - x15x64x1 - x12x64x1 - x33x64x1 - x75x64x1 - x7x64x1 - x141x64x1 - x68x64x1 - x111x64x1 - x149x64x1 - x205x64x1 - x55x64x1 - x177x64x1 - x80x64x1 = 0
1y64 - x23x64x3 - x84x64x3 - x15x64x3 - x12x64x3 - x33x64x3 - x150x64x3 - x162x64x3 - x68x64x3 - x205x64x3 - x2x64x3 = 0
1y133 - x187x133x2 - x186x133x2 - x75x133x2 - x141x133x2 - x175x133x2 - x30x133x2 - x80x133x2 - x48x133x2 = 0
1y133 - x23x133x3 - x77x133x3 - x84x133x3 - x15x133x3 - x12x133x3 - x33x133x3 - x150x133x3 - x162x133x3 - x68x133x3 - x205x133x3 - x2x133x3 - x64x133x3 = 0
1y209 - x187x209x1 - x23x209x1 - x77x209x1 - x145x209x1 - x164x209x1 - x15x209x1 - x12x209x1 - x33x209x1 - x75x209x1 - x7x209x1 - x141x209x1 - x68x209x1 - x111x209x1 - x149x209x1 - x205x209x1 - x55x209x1 - x177x209x1 - x80x209x1 - x64x209x1 = 0
1y209 - x23x209x3 - x77x209x3 - x129x209x3 - x145x209x3 - x84x209x3 - x15x209x3 - x12x209x3 - x33x209x3 - x150x209x3 - x162x209x3 - x68x209x3 - x62x209x3 - x19x209x3 - x205x209x3 - x2x209x3 - x64x209x3 - x133x209x3 = 0
1y1 - x187x1x1 - x23x1x1 - x77x1x1 - x145x1x1 - x164x1x1 - x45x1x1 - x15x1x1 - x12x1x1 - x33x1x1 - x75x1x1 - x7x1x1 - x141x1x1 - x68x1x1 - x111x1x1 - x149x1x1 - x205x1x1 - x55x1x1 - x177x1x1 - x80x1x1 = 0
1y1 - x23x1x3 - x77x1x3 - x129x1x3 - x145x1x3 - x84x1x3 - x15x1x3 - x12x1x3 - x33x1x3 - x150x1x3 - x162x1x3 - x68x1x3 - x62x1x3 - x19x1x3 - x205x1x3 - x2x1x3 = 0

s187 - s12 + 8.228878z187z12z1 <= 6.69
s187 - s33 + 8.189695z187z33z1 <= 6.69
s187 - s75 + 8.193074z187z75z1 <= 6.69
s187 - s75 + 8.193074z187z75z2 <= 6.69
s187 - s7 + 8.303395z187z7z1 <= 6.69
s187 - s141 + 8.201379z187z141z1 <= 6.69
s187 - s141 + 8.201379z187z141z2 <= 6.69
s187 - s68 + 8.301650z187z68z1 <= 6.69
s187 - s175 + 8.303722z187z175z2 <= 6.69
s187 - s62 + 8.210665z187z62z2 <= 6.69
s187 - s111 + 8.336457z187z111z1 <= 6.69
s187 - s25 + 8.221340z187z25z2 <= 6.69
s187 - s149 + 8.122341z187z149z1 <= 6.69
s187 - s205 + 8.128944z187z205z1 <= 6.69
s187 - s30 + 8.147937z187z30z2 <= 6.69
s187 - s55 + 8.155374z187z55z1 <= 6.69
s187 - s177 + 8.124399z187z177z1 <= 6.69
s187 - s80 + 8.143091z187z80z1 <= 6.69
s187 - s80 + 8.143091z187z80z2 <= 6.69
s187 - s48 + 8.133392z187z48z2 <= 6.69
s187 - s64 + 8.151814z187z64z1 <= 6.69
s187 - s133 + 8.123218z187z133z2 <= 6.69
s187 - s209 + 8.278938z187z209z1 <= 6.69
s187 - s1 + 8.492199z187z1z1 <= 6.69
s23 - s75 + 8.318983z23z75z1 <= 7.18
s23 - s162 + 8.324626z23z162z3 <= 7.18
s23 - s141 + 8.327132z23z141z1 <= 7.18
s23 - s62 + 8.336308z23z62z3 <= 7.18
s23 - s19 + 8.346336z23z19z3 <= 7.18
s23 - s149 + 8.662973z23z149z1 <= 7.18
s23 - s205 + 8.666809z23z205z1 <= 7.18
s23 - s205 + 8.666809z23z205z3 <= 7.18
s23 - s55 + 8.682747z23z55z1 <= 7.18
s23 - s177 + 8.673982z23z177z1 <= 7.18
s23 - s80 + 8.680021z23z80z1 <= 7.18
s23 - s2 + 8.681542z23z2z3 <= 7.18
s23 - s64 + 8.694722z23z64z1 <= 7.18
s23 - s64 + 8.694722z23z64z3 <= 7.18
s23 - s133 + 8.692804z23z133z3 <= 7.18
s23 - s209 + 8.787391z23z209z1 <= 7.18
s23 - s209 + 8.787391z23z209z3 <= 7.18
s23 - s1 + 8.713521z23z1z1 <= 7.18
s23 - s1 + 8.713521z23z1z3 <= 7.18
s77 - s133 + 9.024293z77z133z3 <= 7.52
s77 - s209 + 9.108232z77z209z1 <= 7.52
s77 - s209 + 9.108232z77z209z3 <= 7.52
s77 - s1 + 9.004072z77z1z1 <= 7.52
s77 - s1 + 9.004072z77z1z3 <= 7.52
s186 - s133 + 9.056486z186z133z2 <= 7.60
s129 - s209 + 9.376701z129z209z3 <= 7.86
s129 - s1 + 9.211723z129z1z3 <= 7.86
s145 - s209 + 9.189416z145z209z1 <= 7.66
s145 - s209 + 9.189416z145z209z3 <= 7.66
s145 - s1 + 9.023830z145z1z1 <= 7.66
s145 - s1 + 9.023830z145z1z3 <= 7.66
s164 - s209 + 9.142014z164z209z1 <= 7.61
s164 - s1 + 8.959421z164z1z1 <= 7.61
s45 - s1 + 9.450617z45z1z1 <= 8.13
s84 - s15 + 7.329324z84z15z3 <= 5.64
s84 - s12 + 7.249393z84z12z3 <= 5.64
s84 - s33 + 7.149216z84z33z3 <= 5.64
s84 - s150 + 7.381767z84z150z3 <= 5.64
s84 - s162 + 7.135679z84z162z3 <= 5.64
s84 - s68 + 7.350017z84z68z3 <= 5.64
s84 - s62 + 7.167898z84z62z3 <= 5.64
s84 - s19 + 7.172674z84z19z3 <= 5.64
s84 - s205 + 7.256157z84z205z3 <= 5.64
s84 - s2 + 7.266133z84z2z3 <= 5.64
s84 - s64 + 7.280790z84z64z3 <= 5.64
s84 - s133 + 7.255011z84z133z3 <= 5.64
s84 - s209 + 7.406480z84z209z3 <= 5.64
s84 - s1 + 7.538911z84z1z3 <= 5.64
s15 - s7 + 9.253994z15z7z1 <= 8.22
s15 - s68 + 9.267140z15z68z1 <= 8.22
s15 - s68 + 9.267140z15z68z3 <= 8.22
s15 - s111 + 9.285660z15z111z1 <= 8.22
s15 - s19 + 9.571316z15z19z3 <= 8.22
s15 - s149 + 9.580864z15z149z1 <= 8.22
s15 - s205 + 9.579568z15z205z1 <= 8.22
s15 - s205 + 9.579568z15z205z3 <= 8.22
s15 - s55 + 9.575590z15z55z1 <= 8.22
s15 - s177 + 9.593928z15z177z1 <= 8.22
s15 - s80 + 9.583929z15z80z1 <= 8.22
s15 - s2 + 9.591543z15z2z3 <= 8.22
s15 - s64 + 9.596239z15z64z1 <= 8.22
s15 - s64 + 9.596239z15z64z3 <= 8.22
s15 - s133 + 9.621387z15z133z3 <= 8.22
s15 - s209 + 9.614856z15z209z1 <= 8.22
s15 - s209 + 9.614856z15z209z3 <= 8.22
s15 - s1 + 9.442811z15z1z1 <= 8.22
s15 - s1 + 9.442811z15z1z3 <= 8.22
s12 - s68 + 9.382833z12z68z1 <= 8.25
s12 - s68 + 9.382833z12z68z3 <= 8.25
s12 - s62 + 9.441021z12z62z3 <= 8.25
s12 - s111 + 9.439736z12z111z1 <= 8.25
s12 - s19 + 9.453525z12z19z3 <= 8.25
s12 - s149 + 9.692468z12z149z1 <= 8.25
s12 - s205 + 9.693220z12z205z1 <= 8.25
s12 - s205 + 9.693220z12z205z3 <= 8.25
s12 - s55 + 9.697214z12z55z1 <= 8.25
s12 - s177 + 9.705729z12z177z1 <= 8.25
s12 - s80 + 9.701614z12z80z1 <= 8.25
s12 - s2 + 9.707287z12z2z3 <= 8.25
s12 - s64 + 9.715809z12z64z1 <= 8.25
s12 - s64 + 9.715809z12z64z3 <= 8.25
s12 - s133 + 9.731664z12z133z3 <= 8.25
s12 - s209 + 9.763853z12z209z1 <= 8.25
s12 - s209 + 9.763853z12z209z3 <= 8.25
s12 - s1 + 9.548142z12z1z1 <= 8.25
s12 - s1 + 9.548142z12z1z3 <= 8.25
s33 - s75 + 9.299428z33z75z1 <= 8.29
s33 - s162 + 9.334722z33z162z3 <= 8.29
s33 - s141 + 9.304907z33z141z1 <= 8.29
s33 - s62 + 9.311082z33z62z3 <= 8.29
s33 - s19 + 9.323334z33z19z3 <= 8.29
s33 - s80 + 9.862713z33z80z1 <= 8.29
s33 - s2 + 9.866040z33z2z3 <= 8.29
s33 - s64 + 9.877613z33z64z1 <= 8.29
s33 - s64 + 9.877613z33z64z3 <= 8.29
s33 - s133 + 9.883034z33z133z3 <= 8.29
s33 - s209 + 9.951983z33z209z1 <= 8.29
s33 - s209 + 9.951983z33z209z3 <= 8.29
s33 - s1 + 9.757095z33z1z1 <= 8.29
s33 - s1 + 9.757095z33z1z3 <= 8.29
s150 - s68 + 9.416619z150z68z3 <= 8.30
s150 - s205 + 9.628296z150z205z3 <= 8.30
s150 - s2 + 9.637968z150z2z3 <= 8.30
s150 - s64 + 9.639477z150z64z3 <= 8.30
s150 - s133 + 9.670285z150z133z3 <= 8.30
s150 - s209 + 9.633600z150z209z3 <= 8.30
s150 - s1 + 9.520807z150z1z3 <= 8.30
s75 - s141 + 9.350000z75z141z1 <= 8.33
s75 - s141 + 9.350000z75z141z2 <= 8.33
s75 - s62 + 9.348856z75z62z2 <= 8.33
s75 - s25 + 9.363994z75z25z2 <= 8.33
s75 - s48 + 9.924381z75z48z2 <= 8.33
s75 - s64 + 9.926471z75z64z1 <= 8.33
s75 - s133 + 9.931664z75z133z2 <= 8.33
s75 - s209 + 10.001251z75z209z1 <= 8.33
s75 - s1 + 9.804084z75z1z1 <= 8.33
s7 - s68 + 9.398074z7z68z1 <= 8.35
s7 - s111 + 9.383333z7z111z1 <= 8.35
s7 - s149 + 9.725471z7z149z1 <= 8.35
s7 - s205 + 9.723631z7z205z1 <= 8.35
s7 - s55 + 9.717394z7z55z1 <= 8.35
s7 - s177 + 9.738273z7z177z1 <= 8.35
s7 - s80 + 9.726770z7z80z1 <= 8.35
s7 - s64 + 9.738330z7z64z1 <= 8.35
s7 - s209 + 9.746093z7z209z1 <= 8.35
s7 - s1 + 9.543334z7z1z1 <= 8.35
s162 - s62 + 9.406666z162z62z3 <= 8.36
s162 - s19 + 9.402164z162z19z3 <= 8.36
s162 - s64 + 9.983181z162z64z3 <= 8.36
s162 - s133 + 9.986808z162z133z3 <= 8.36
s162 - s209 + 10.061395z162z209z3 <= 8.36
s162 - s1 + 9.868242z162z1z3 <= 8.36
s141 - s62 + 9.394907z141z62z2 <= 8.38
s141 - s25 + 9.422688z141z25z2 <= 8.38
s141 - s48 + 9.966818z141z48z2 <= 8.38
s141 - s64 + 9.968256z141z64z1 <= 8.38
s141 - s133 + 9.974643z141z133z2 <= 8.38
s141 - s209 + 10.040134z141z209z1 <= 8.38
s141 - s1 + 9.834117z141z1z1 <= 8.38
s68 - s111 + 9.486960z68z111z1 <= 8.43
s68 - s55 + 9.832713z68z55z1 <= 8.43
s68 - s177 + 9.851005z68z177z1 <= 8.43
s68 - s80 + 9.841069z68z80z1 <= 8.43
s68 - s2 + 9.848676z68z2z3 <= 8.43
s68 - s64 + 9.853373z68z64z1 <= 8.43
s68 - s64 + 9.853373z68z64z3 <= 8.43
s68 - s133 + 9.878454z68z133z3 <= 8.43
s68 - s209 + 9.869495z68z209z1 <= 8.43
s68 - s209 + 9.869495z68z209z3 <= 8.43
s68 - s1 + 9.621021z68z1z1 <= 8.43
s68 - s1 + 9.621021z68z1z3 <= 8.43
s175 - s48 + 9.915022z175z48z2 <= 8.47
s175 - s133 + 9.930338z175z133z2 <= 8.47
s62 - s19 + 9.504907z62z19z3 <= 8.49
s62 - s25 + 9.518284z62z25z2 <= 8.49
s62 - s209 + 10.164948z62z209z3 <= 8.49
s62 - s1 + 9.951735z62z1z3 <= 8.49
s111 - s64 + 9.923978z111z64z1 <= 8.51
s111 - s209 + 9.923817z111z209z1 <= 8.51
s111 - s1 + 9.670278z111z1z1 <= 8.51
s19 - s209 + 10.279766z19z209z3 <= 8.59
s19 - s1 + 10.059705z19z1z3 <= 8.59
s149 - s205 + 9.766666z149z205z1 <= 8.76
s149 - s55 + 9.793333z149z55z1 <= 8.76
s149 - s177 + 9.773334z149z177z1 <= 8.76
s149 - s80 + 9.781082z149z80z1 <= 8.76
s149 - s64 + 9.793333z149z64z1 <= 8.76
s149 - s209 + 9.916915z149z209z1 <= 8.76
s149 - s1 + 10.311563z149z1z1 <= 8.76
s205 - s55 + 9.806666z205z55z1 <= 8.78
s205 - s177 + 9.794907z205z177z1 <= 8.78
s205 - s80 + 9.794907z205z80z1 <= 8.78
s205 - s2 + 9.794907z205z2z3 <= 8.78
s205 - s64 + 9.808284z205z64z1 <= 8.78
s205 - s64 + 9.808284z205z64z3 <= 8.78
s205 - s133 + 9.822164z205z133z3 <= 8.78
s205 - s209 + 9.930407z205z209z1 <= 8.78
s205 - s209 + 9.930407z205z209z3 <= 8.78
s205 - s1 + 10.328614z205z1z1 <= 8.78
s205 - s1 + 10.328614z205z1z3 <= 8.78
s30 - s80 + 9.804907z30z80z2 <= 8.79
s30 - s48 + 9.828873z30z48z2 <= 8.79
s30 - s133 + 9.847349z30z133z2 <= 8.79
s55 - s64 + 9.881082z55z64z1 <= 8.86
s55 - s209 + 9.984543z55z209z1 <= 8.86
s55 - s1 + 10.397484z55z1z1 <= 8.86
s177 - s64 + 9.887487z177z64z1 <= 8.86
s177 - s209 + 10.014632z177z209z1 <= 8.86
s177 - s1 + 10.423520z177z1z1 <= 8.86
s80 - s48 + 9.894037z80z48z2 <= 8.87
s80 - s64 + 9.884907z80z64z1 <= 8.87
s80 - s133 + 9.912687z80z133z2 <= 8.87
s80 - s209 + 10.005974z80z209z1 <= 8.87
s80 - s1 + 10.418979z80z1z1 <= 8.87
s2 - s64 + 9.914907z2z64z3 <= 8.90
s2 - s133 + 9.933332z2z133z3 <= 8.90
s2 - s209 + 10.041421z2z209z3 <= 8.90
s2 - s1 + 10.457813z2z1z3 <= 8.90
s48 - s133 + 10.008856z48z133z2 <= 8.99
s64 - s133 + 10.028872z64z133z3 <= 8.99
s64 - s209 + 10.117367z64z209z1 <= 8.99
s64 - s209 + 10.117367z64z209z3 <= 8.99
s133 - s209 + 10.230139z133z209z3 <= 9.07

x187x12x1 - 1z187z12z1 <= 0
x187x33x1 - 1z187z33z1 <= 0
x187x75x1 - 1z187z75z1 <= 0
x187x75x2 - 1z187z75z2 <= 0
x187x7x1 - 2z187z7z1 <= 0
x187x141x1 - 1z187z141z1 <= 0
x187x141x2 - 1z187z141z2 <= 0
x187x68x1 - 1z187z68z1 <= 0
x187x175x2 - 2z187z175z2 <= 0
x187x62x2 - 1z187z62z2 <= 0
x187x111x1 - 2z187z111z1 <= 0
x187x25x2 - 2z187z25z2 <= 0
x187x149x1 - 2z187z149z1 <= 0
x187x205x1 - 1z187z205z1 <= 0
x187x30x2 - 2z187z30z2 <= 0
x187x55x1 - 2z187z55z1 <= 0
x187x177x1 - 2z187z177z1 <= 0
x187x80x1 - 1z187z80z1 <= 0
x187x80x2 - 1z187z80z2 <= 0
x187x48x2 - 2z187z48z2 <= 0
x187x64x1 - 1z187z64z1 <= 0
x187x133x2 - 1z187z133z2 <= 0
x187x209x1 - 1z187z209z1 <= 0
x187x1x1 - 1z187z1z1 <= 0
x23x75x1 - 1z23z75z1 <= 0
x23x162x3 - 2z23z162z3 <= 0
x23x141x1 - 1z23z141z1 <= 0
x23x62x3 - 1z23z62z3 <= 0
x23x19x3 - 2z23z19z3 <= 0
x23x149x1 - 2z23z149z1 <= 0
x23x205x1 - 1z23z205z1 <= 0
x23x205x3 - 1z23z205z3 <= 0
x23x55x1 - 2z23z55z1 <= 0
x23x177x1 - 2z23z177z1 <= 0
x23x80x1 - 1z23z80z1 <= 0
x23x2x3 - 2z23z2z3 <= 0
x23x64x1 - 1z23z64z1 <= 0
x23x64x3 - 1z23z64z3 <= 0
x23x133x3 - 1z23z133z3 <= 0
x23x209x1 - 1z23z209z1 <= 0
x23x209x3 - 1z23z209z3 <= 0
x23x1x1 - 1z23z1z1 <= 0
x23x1x3 - 1z23z1z3 <= 0
x77x133x3 - 1z77z133z3 <= 0
x77x209x1 - 1z77z209z1 <= 0
x77x209x3 - 1z77z209z3 <= 0
x77x1x1 - 1z77z1z1 <= 0
x77x1x3 - 1z77z1z3 <= 0
x186x133x2 - 1z186z133z2 <= 0
x129x209x3 - 1z129z209z3 <= 0
x129x1x3 - 1z129z1z3 <= 0
x145x209x1 - 1z145z209z1 <= 0
x145x209x3 - 1z145z209z3 <= 0
x145x1x1 - 1z145z1z1 <= 0
x145x1x3 - 1z145z1z3 <= 0
x164x209x1 - 1z164z209z1 <= 0
x164x1x1 - 1z164z1z1 <= 0
x45x1x1 - 1z45z1z1 <= 0
x84x15x3 - 1z84z15z3 <= 0
x84x12x3 - 1z84z12z3 <= 0
x84x33x3 - 1z84z33z3 <= 0
x84x150x3 - 2z84z150z3 <= 0
x84x162x3 - 2z84z162z3 <= 0
x84x68x3 - 1z84z68z3 <= 0
x84x62x3 - 1z84z62z3 <= 0
x84x19x3 - 2z84z19z3 <= 0
x84x205x3 - 1z84z205z3 <= 0
x84x2x3 - 2z84z2z3 <= 0
x84x64x3 - 1z84z64z3 <= 0
x84x133x3 - 1z84z133z3 <= 0
x84x209x3 - 1z84z209z3 <= 0
x84x1x3 - 1z84z1z3 <= 0
x15x7x1 - 2z15z7z1 <= 0
x15x68x1 - 1z15z68z1 <= 0
x15x68x3 - 1z15z68z3 <= 0
x15x111x1 - 2z15z111z1 <= 0
x15x19x3 - 2z15z19z3 <= 0
x15x149x1 - 2z15z149z1 <= 0
x15x205x1 - 1z15z205z1 <= 0
x15x205x3 - 1z15z205z3 <= 0
x15x55x1 - 2z15z55z1 <= 0
x15x177x1 - 2z15z177z1 <= 0
x15x80x1 - 1z15z80z1 <= 0
x15x2x3 - 2z15z2z3 <= 0
x15x64x1 - 1z15z64z1 <= 0
x15x64x3 - 1z15z64z3 <= 0
x15x133x3 - 1z15z133z3 <= 0
x15x209x1 - 1z15z209z1 <= 0
x15x209x3 - 1z15z209z3 <= 0
x15x1x1 - 1z15z1z1 <= 0
x15x1x3 - 1z15z1z3 <= 0
x15x0x1 <= 1
x15x0x3 <= 1
x12x68x1 - 1z12z68z1 <= 0
x12x68x3 - 1z12z68z3 <= 0
x12x62x3 - 1z12z62z3 <= 0
x12x111x1 - 2z12z111z1 <= 0
x12x19x3 - 2z12z19z3 <= 0
x12x149x1 - 2z12z149z1 <= 0
x12x205x1 - 1z12z205z1 <= 0
x12x205x3 - 1z12z205z3 <= 0
x12x55x1 - 2z12z55z1 <= 0
x12x177x1 - 2z12z177z1 <= 0
x12x80x1 - 1z12z80z1 <= 0
x12x2x3 - 2z12z2z3 <= 0
x12x64x1 - 1z12z64z1 <= 0
x12x64x3 - 1z12z64z3 <= 0
x12x133x3 - 1z12z133z3 <= 0
x12x209x1 - 1z12z209z1 <= 0
x12x209x3 - 1z12z209z3 <= 0
x12x1x1 - 1z12z1z1 <= 0
x12x1x3 - 1z12z1z3 <= 0
x12x0x1 <= 1
x12x0x3 <= 1
x33x75x1 - 1z33z75z1 <= 0
x33x162x3 - 2z33z162z3 <= 0
x33x141x1 - 1z33z141z1 <= 0
x33x62x3 - 1z33z62z3 <= 0
x33x19x3 - 2z33z19z3 <= 0
x33x80x1 - 1z33z80z1 <= 0
x33x2x3 - 2z33z2z3 <= 0
x33x64x1 - 1z33z64z1 <= 0
x33x64x3 - 1z33z64z3 <= 0
x33x133x3 - 1z33z133z3 <= 0
x33x209x1 - 1z33z209z1 <= 0
x33x209x3 - 1z33z209z3 <= 0
x33x1x1 - 1z33z1z1 <= 0
x33x1x3 - 1z33z1z3 <= 0
x33x0x1 <= 1
x33x0x3 <= 1
x150x68x3 - 1z150z68z3 <= 0
x150x205x3 - 1z150z205z3 <= 0
x150x2x3 - 2z150z2z3 <= 0
x150x64x3 - 1z150z64z3 <= 0
x150x133x3 - 1z150z133z3 <= 0
x150x209x3 - 1z150z209z3 <= 0
x150x1x3 - 1z150z1z3 <= 0
x150x0x3 <= 2
x75x141x1 - 1z75z141z1 <= 0
x75x141x2 - 1z75z141z2 <= 0
x75x62x2 - 1z75z62z2 <= 0
x75x25x2 - 2z75z25z2 <= 0
x75x48x2 - 2z75z48z2 <= 0
x75x64x1 - 1z75z64z1 <= 0
x75x133x2 - 1z75z133z2 <= 0
x75x209x1 - 1z75z209z1 <= 0
x75x1x1 - 1z75z1z1 <= 0
x75x0x1 <= 1
x75x0x2 <= 1
x7x68x1 - 1z7z68z1 <= 0
x7x111x1 - 2z7z111z1 <= 0
x7x149x1 - 2z7z149z1 <= 0
x7x205x1 - 1z7z205z1 <= 0
x7x55x1 - 2z7z55z1 <= 0
x7x177x1 - 2z7z177z1 <= 0
x7x80x1 - 1z7z80z1 <= 0
x7x64x1 - 1z7z64z1 <= 0
x7x209x1 - 1z7z209z1 <= 0
x7x1x1 - 1z7z1z1 <= 0
x7x0x1 <= 2
x162x62x3 - 1z162z62z3 <= 0
x162x19x3 - 2z162z19z3 <= 0
x162x64x3 - 1z162z64z3 <= 0
x162x133x3 - 1z162z133z3 <= 0
x162x209x3 - 1z162z209z3 <= 0
x162x1x3 - 1z162z1z3 <= 0
x162x0x3 <= 2
x141x62x2 - 1z141z62z2 <= 0
x141x25x2 - 2z141z25z2 <= 0
x141x48x2 - 2z141z48z2 <= 0
x141x64x1 - 1z141z64z1 <= 0
x141x133x2 - 1z141z133z2 <= 0
x141x209x1 - 1z141z209z1 <= 0
x141x1x1 - 1z141z1z1 <= 0
x141x0x1 <= 1
x141x0x2 <= 1
x68x111x1 - 2z68z111z1 <= 0
x68x55x1 - 2z68z55z1 <= 0
x68x177x1 - 2z68z177z1 <= 0
x68x80x1 - 1z68z80z1 <= 0
x68x2x3 - 2z68z2z3 <= 0
x68x64x1 - 1z68z64z1 <= 0
x68x64x3 - 1z68z64z3 <= 0
x68x133x3 - 1z68z133z3 <= 0
x68x209x1 - 1z68z209z1 <= 0
x68x209x3 - 1z68z209z3 <= 0
x68x1x1 - 1z68z1z1 <= 0
x68x1x3 - 1z68z1z3 <= 0
x68x0x1 <= 1
x68x0x3 <= 1
x175x48x2 - 2z175z48z2 <= 0
x175x133x2 - 1z175z133z2 <= 0
x175x0x2 <= 2
x62x19x3 - 2z62z19z3 <= 0
x62x25x2 - 2z62z25z2 <= 0
x62x209x3 - 1z62z209z3 <= 0
x62x1x3 - 1z62z1z3 <= 0
x62x0x2 <= 1
x62x0x3 <= 1
x111x64x1 - 1z111z64z1 <= 0
x111x209x1 - 1z111z209z1 <= 0
x111x1x1 - 1z111z1z1 <= 0
x111x0x1 <= 2
x19x209x3 - 1z19z209z3 <= 0
x19x1x3 - 1z19z1z3 <= 0
x19x0x3 <= 2
x25x0x2 <= 2
x149x205x1 - 1z149z205z1 <= 0
x149x55x1 - 2z149z55z1 <= 0
x149x177x1 - 2z149z177z1 <= 0
x149x80x1 - 1z149z80z1 <= 0
x149x64x1 - 1z149z64z1 <= 0
x149x209x1 - 1z149z209z1 <= 0
x149x1x1 - 1z149z1z1 <= 0
x149x0x1 <= 2
x205x55x1 - 2z205z55z1 <= 0
x205x177x1 - 2z205z177z1 <= 0
x205x80x1 - 1z205z80z1 <= 0
x205x2x3 - 2z205z2z3 <= 0
x205x64x1 - 1z205z64z1 <= 0
x205x64x3 - 1z205z64z3 <= 0
x205x133x3 - 1z205z133z3 <= 0
x205x209x1 - 1z205z209z1 <= 0
x205x209x3 - 1z205z209z3 <= 0
x205x1x1 - 1z205z1z1 <= 0
x205x1x3 - 1z205z1z3 <= 0
x205x0x1 <= 1
x205x0x3 <= 1
x30x80x2 - 1z30z80z2 <= 0
x30x48x2 - 2z30z48z2 <= 0
x30x133x2 - 1z30z133z2 <= 0
x30x0x2 <= 2
x55x64x1 - 1z55z64z1 <= 0
x55x209x1 - 1z55z209z1 <= 0
x55x1x1 - 1z55z1z1 <= 0
x55x0x1 <= 2
x177x64x1 - 1z177z64z1 <= 0
x177x209x1 - 1z177z209z1 <= 0
x177x1x1 - 1z177z1z1 <= 0
x177x0x1 <= 2
x80x48x2 - 2z80z48z2 <= 0
x80x64x1 - 1z80z64z1 <= 0
x80x133x2 - 1z80z133z2 <= 0
x80x209x1 - 1z80z209z1 <= 0
x80x1x1 - 1z80z1z1 <= 0
x80x0x1 <= 1
x80x0x2 <= 1
x2x64x3 - 1z2z64z3 <= 0
x2x133x3 - 1z2z133z3 <= 0
x2x209x3 - 1z2z209z3 <= 0
x2x1x3 - 1z2z1z3 <= 0
x2x0x3 <= 2
x48x133x2 - 1z48z133z2 <= 0
x48x0x2 <= 2
x64x133x3 - 1z64z133z3 <= 0
x64x209x1 - 1z64z209z1 <= 0
x64x209x3 - 1z64z209z3 <= 0
x64x0x1 <= 1
x64x0x3 <= 1
x133x209x3 - 1z133z209z3 <= 0
x133x0x2 <= 1
x133x0x3 <= 1
x209x0x1 <= 1
x209x0x3 <= 1
x1x0x1 <= 1
x1x0x3 <= 1

Bounds
s187 = 6.691477
s23 = 7.183993
s77 = 7.517451
s186 = 7.601489
s129 = 7.857385
s145 = 7.657710
s164 = 7.614167
s45 = 8.125040
s84 = 5.635190
7.220000 <= s15 <= 8.220000
7.250000 <= s12 <= 8.250000
7.290000 <= s33 <= 8.290000
7.300000 <= s150 <= 8.300000
7.330000 <= s75 <= 8.330000
7.350000 <= s7 <= 8.350000
7.360000 <= s162 <= 8.360000
7.380000 <= s141 <= 8.380000
7.430000 <= s68 <= 8.430000
7.470000 <= s175 <= 8.470000
7.490000 <= s62 <= 8.490000
7.510000 <= s111 <= 8.510000
7.590000 <= s19 <= 8.590000
7.620000 <= s25 <= 8.620000
7.760000 <= s149 <= 8.760000
7.780000 <= s205 <= 8.780000
7.790000 <= s30 <= 8.790000
7.860000 <= s55 <= 8.860000
7.860000 <= s177 <= 8.860000
7.870000 <= s80 <= 8.870000
7.900000 <= s2 <= 8.900000
7.990000 <= s48 <= 8.990000
7.990000 <= s64 <= 8.990000
8.070000 <= s133 <= 9.070000
8.470000 <= s209 <= 9.470000
8.490000 <= s1 <= 9.490000

General
x187x12x1 x187x33x1 x187x75x1 x187x75x2 x187x7x1 x187x141x1 x187x141x2 x187x68x1 x187x175x2 x187x62x2 x187x111x1 x187x25x2 x187x149x1 x187x205x1 x187x30x2 x187x55x1 x187x177x1 x187x80x1 x187x80x2 x187x48x2 x187x64x1 x187x133x2 x187x209x1 x187x1x1 
x23x75x1 x23x162x3 x23x141x1 x23x62x3 x23x19x3 x23x149x1 x23x205x1 x23x205x3 x23x55x1 x23x177x1 x23x80x1 x23x2x3 x23x64x1 x23x64x3 x23x133x3 x23x209x1 x23x209x3 x23x1x1 x23x1x3 
x77x133x3 x77x209x1 x77x209x3 x77x1x1 x77x1x3 
x186x133x2 
x129x209x3 x129x1x3 
x145x209x1 x145x209x3 x145x1x1 x145x1x3 
x164x209x1 x164x1x1 
x45x1x1 
x84x15x3 x84x12x3 x84x33x3 x84x150x3 x84x162x3 x84x68x3 x84x62x3 x84x19x3 x84x205x3 x84x2x3 x84x64x3 x84x133x3 x84x209x3 x84x1x3 
x15x7x1 x15x68x1 x15x68x3 x15x111x1 x15x19x3 x15x149x1 x15x205x1 x15x205x3 x15x55x1 x15x177x1 x15x80x1 x15x2x3 x15x64x1 x15x64x3 x15x133x3 x15x209x1 x15x209x3 x15x1x1 x15x1x3 x15x0x1 x15x0x3 
x12x68x1 x12x68x3 x12x62x3 x12x111x1 x12x19x3 x12x149x1 x12x205x1 x12x205x3 x12x55x1 x12x177x1 x12x80x1 x12x2x3 x12x64x1 x12x64x3 x12x133x3 x12x209x1 x12x209x3 x12x1x1 x12x1x3 x12x0x1 x12x0x3 
x33x75x1 x33x162x3 x33x141x1 x33x62x3 x33x19x3 x33x80x1 x33x2x3 x33x64x1 x33x64x3 x33x133x3 x33x209x1 x33x209x3 x33x1x1 x33x1x3 x33x0x1 x33x0x3 
x150x68x3 x150x205x3 x150x2x3 x150x64x3 x150x133x3 x150x209x3 x150x1x3 x150x0x3 
x75x141x1 x75x141x2 x75x62x2 x75x25x2 x75x48x2 x75x64x1 x75x133x2 x75x209x1 x75x1x1 x75x0x1 x75x0x2 
x7x68x1 x7x111x1 x7x149x1 x7x205x1 x7x55x1 x7x177x1 x7x80x1 x7x64x1 x7x209x1 x7x1x1 x7x0x1 
x162x62x3 x162x19x3 x162x64x3 x162x133x3 x162x209x3 x162x1x3 x162x0x3 
x141x62x2 x141x25x2 x141x48x2 x141x64x1 x141x133x2 x141x209x1 x141x1x1 x141x0x1 x141x0x2 
x68x111x1 x68x55x1 x68x177x1 x68x80x1 x68x2x3 x68x64x1 x68x64x3 x68x133x3 x68x209x1 x68x209x3 x68x1x1 x68x1x3 x68x0x1 x68x0x3 
x175x48x2 x175x133x2 x175x0x2 
x62x19x3 x62x25x2 x62x209x3 x62x1x3 x62x0x2 x62x0x3 
x111x64x1 x111x209x1 x111x1x1 x111x0x1 
x19x209x3 x19x1x3 x19x0x3 
x25x0x2 
x149x205x1 x149x55x1 x149x177x1 x149x80x1 x149x64x1 x149x209x1 x149x1x1 x149x0x1 
x205x55x1 x205x177x1 x205x80x1 x205x2x3 x205x64x1 x205x64x3 x205x133x3 x205x209x1 x205x209x3 x205x1x1 x205x1x3 x205x0x1 x205x0x3 
x30x80x2 x30x48x2 x30x133x2 x30x0x2 
x55x64x1 x55x209x1 x55x1x1 x55x0x1 
x177x64x1 x177x209x1 x177x1x1 x177x0x1 
x80x48x2 x80x64x1 x80x133x2 x80x209x1 x80x1x1 x80x0x1 x80x0x2 
x2x64x3 x2x133x3 x2x209x3 x2x1x3 x2x0x3 
x48x133x2 x48x0x2 
x64x133x3 x64x209x1 x64x209x3 x64x0x1 x64x0x3 
x133x209x3 x133x0x2 x133x0x3 
x209x0x1 x209x0x3 
x1x0x1 x1x0x3 

Binaries
y15 y12 y33 y150 y75 y7 y162 y141 y68 y175 y62 y111 y19 y25 y149 y205 y30 y55 y177 y80 y2 y48 y64 y133 y209 y1 
z187z12z1 z187z33z1 z187z75z1 z187z75z2 z187z7z1 z187z141z1 z187z141z2 z187z68z1 z187z175z2 z187z62z2 z187z111z1 z187z25z2 z187z149z1 z187z205z1 z187z30z2 z187z55z1 z187z177z1 z187z80z1 z187z80z2 z187z48z2 z187z64z1 z187z133z2 z187z209z1 z187z1z1 
z23z75z1 z23z162z3 z23z141z1 z23z62z3 z23z19z3 z23z149z1 z23z205z1 z23z205z3 z23z55z1 z23z177z1 z23z80z1 z23z2z3 z23z64z1 z23z64z3 z23z133z3 z23z209z1 z23z209z3 z23z1z1 z23z1z3 
z77z133z3 z77z209z1 z77z209z3 z77z1z1 z77z1z3 
z186z133z2 
z129z209z3 z129z1z3 
z145z209z1 z145z209z3 z145z1z1 z145z1z3 
z164z209z1 z164z1z1 
z45z1z1 
z84z15z3 z84z12z3 z84z33z3 z84z150z3 z84z162z3 z84z68z3 z84z62z3 z84z19z3 z84z205z3 z84z2z3 z84z64z3 z84z133z3 z84z209z3 z84z1z3 
z15z7z1 z15z68z1 z15z68z3 z15z111z1 z15z19z3 z15z149z1 z15z205z1 z15z205z3 z15z55z1 z15z177z1 z15z80z1 z15z2z3 z15z64z1 z15z64z3 z15z133z3 z15z209z1 z15z209z3 z15z1z1 z15z1z3 
z12z68z1 z12z68z3 z12z62z3 z12z111z1 z12z19z3 z12z149z1 z12z205z1 z12z205z3 z12z55z1 z12z177z1 z12z80z1 z12z2z3 z12z64z1 z12z64z3 z12z133z3 z12z209z1 z12z209z3 z12z1z1 z12z1z3 
z33z75z1 z33z162z3 z33z141z1 z33z62z3 z33z19z3 z33z80z1 z33z2z3 z33z64z1 z33z64z3 z33z133z3 z33z209z1 z33z209z3 z33z1z1 z33z1z3 
z150z68z3 z150z205z3 z150z2z3 z150z64z3 z150z133z3 z150z209z3 z150z1z3 
z75z141z1 z75z141z2 z75z62z2 z75z25z2 z75z48z2 z75z64z1 z75z133z2 z75z209z1 z75z1z1 
z7z68z1 z7z111z1 z7z149z1 z7z205z1 z7z55z1 z7z177z1 z7z80z1 z7z64z1 z7z209z1 z7z1z1 
z162z62z3 z162z19z3 z162z64z3 z162z133z3 z162z209z3 z162z1z3 
z141z62z2 z141z25z2 z141z48z2 z141z64z1 z141z133z2 z141z209z1 z141z1z1 
z68z111z1 z68z55z1 z68z177z1 z68z80z1 z68z2z3 z68z64z1 z68z64z3 z68z133z3 z68z209z1 z68z209z3 z68z1z1 z68z1z3 
z175z48z2 z175z133z2 
z62z19z3 z62z25z2 z62z209z3 z62z1z3 
z111z64z1 z111z209z1 z111z1z1 
z19z209z3 z19z1z3 

z149z205z1 z149z55z1 z149z177z1 z149z80z1 z149z64z1 z149z209z1 z149z1z1 
z205z55z1 z205z177z1 z205z80z1 z205z2z3 z205z64z1 z205z64z3 z205z133z3 z205z209z1 z205z209z3 z205z1z1 z205z1z3 
z30z80z2 z30z48z2 z30z133z2 
z55z64z1 z55z209z1 z55z1z1 
z177z64z1 z177z209z1 z177z1z1 
z80z48z2 z80z64z1 z80z133z2 z80z209z1 z80z1z1 
z2z64z3 z2z133z3 z2z209z3 z2z1z3 
z48z133z2 
z64z133z3 z64z209z1 z64z209z3 
z133z209z3 



End